(set-info :smt-lib-version 2.6)
(set-logic ALIA)
(set-info :source |
Generated by the tool Ultimate Automizer [1,2] which implements
an automata theoretic approach [3] to software verification.

This SMT script belongs to a set of SMT scripts that was generated by
applying Ultimate Automizer to benchmarks [4] from the SV-COMP 2023 [5,6].
This script may not contain all SMT commands that Ultimate Automizer
issued. In order to meet the restrictions for SMT-COMP benchmarks 
we dropped the commands for getting values (resp. models), 
unsatisfiable cores, and interpolants.

2023-03-21, Matthias Heizmann (heizmann@informatik.uni-freiburg.de)

[1] https://ultimate.informatik.uni-freiburg.de/automizer/
[2] Matthias Heizmann, Max Barth, Daniel Dietsch, Leonard Fichtner,
     Jochen Hoenicke, Dominik Klumpp, Mehdi Naouar, Tanja Schindler,
     Frank Schüssele, Andreas Podelski: Ultimate Automizer and the
     CommuHash Normal Form (Competition Contribution). TACAS 2023
[3] Matthias Heizmann, Jochen Hoenicke, Andreas Podelski: Software Model
     Checking for People Who Love Automata. CAV 2013
[4] https://github.com/sosy-lab/sv-benchmarks
[5] Dirk Beyer: Competition on Software Verification and
     Witness Validation: SV-COMP 2023.  TACAS 2023
[6] https://sv-comp.sosy-lab.org/2023/
|)
(set-info :license "https://creativecommons.org/licenses/by/4.0/")
(set-info :category "industrial")
(set-info :status unknown)
(declare-fun ~unnamed0~0~P_ALL () Int)
(declare-fun ~unnamed0~0~P_PID () Int)
(declare-fun ~unnamed0~0~P_PGID () Int)
(assert (= ~unnamed0~0~P_ALL 0))
(assert (= ~unnamed0~0~P_PID 1))
(assert (= 2 ~unnamed0~0~P_PGID))
(declare-fun |#memory_$Pointer$.base| () (Array Int (Array Int Int)))
(declare-fun |ULTIMATE.start_main_~#s~0#1.offset| () Int)
(declare-fun |ULTIMATE.start_main_~#s~0#1.base| () Int)
(declare-fun |ULTIMATE.start_dll_create_~head~0#1.base| () Int)
(declare-fun |#memory_$Pointer$.offset| () (Array Int (Array Int Int)))
(declare-fun |ULTIMATE.start_dll_create_~head~0#1.offset| () Int)
(declare-fun |#valid| () (Array Int Int))
(assert (forall ((|v_ULTIMATE.start_dll_create_~new_head~0#1.base_13| Int)) (or (forall ((v_arrayElimArr_3 (Array Int Int))) (or (not (= |ULTIMATE.start_dll_create_~head~0#1.offset| (select v_arrayElimArr_3 4))) (forall ((v_arrayElimArr_4 (Array Int Int))) (let ((.cse7 (+ |ULTIMATE.start_dll_create_~head~0#1.offset| 12))) (let ((.cse4 (let ((.cse8 (store |#memory_$Pointer$.base| |v_ULTIMATE.start_dll_create_~new_head~0#1.base_13| v_arrayElimArr_4))) (store .cse8 |ULTIMATE.start_dll_create_~head~0#1.base| (store (select .cse8 |ULTIMATE.start_dll_create_~head~0#1.base|) .cse7 |v_ULTIMATE.start_dll_create_~new_head~0#1.base_13|))))) (let ((.cse5 (select (select .cse4 |ULTIMATE.start_main_~#s~0#1.base|) |ULTIMATE.start_main_~#s~0#1.offset|))) (or (forall ((v_ArrVal_419 Int) (v_ArrVal_414 Int)) (let ((.cse0 (let ((.cse6 (store |#memory_$Pointer$.offset| |v_ULTIMATE.start_dll_create_~new_head~0#1.base_13| v_arrayElimArr_3))) (store .cse6 |ULTIMATE.start_dll_create_~head~0#1.base| (store (select .cse6 |ULTIMATE.start_dll_create_~head~0#1.base|) .cse7 v_ArrVal_414))))) (or (not (= (select (select .cse0 |ULTIMATE.start_main_~#s~0#1.base|) |ULTIMATE.start_main_~#s~0#1.offset|) 0)) (= (let ((.cse2 (select (select .cse0 .cse5) 4))) (select (let ((.cse3 (select (select .cse4 .cse5) 4))) (select (let ((.cse1 (store .cse0 .cse3 (store (select .cse0 .cse3) (+ .cse2 12) v_ArrVal_419)))) (store .cse1 |ULTIMATE.start_main_~#s~0#1.base| (store (select .cse1 |ULTIMATE.start_main_~#s~0#1.base|) |ULTIMATE.start_main_~#s~0#1.offset| .cse2))) .cse3)) (+ .cse2 4))) 0)))) (not (= |v_ULTIMATE.start_dll_create_~new_head~0#1.base_13| .cse5)) (not (= |ULTIMATE.start_dll_create_~head~0#1.base| (select v_arrayElimArr_4 4)))))))))) (not (= (select |#valid| |v_ULTIMATE.start_dll_create_~new_head~0#1.base_13|) 0)))))
(assert (not (forall ((|v_ULTIMATE.start_dll_create_~new_head~0#1.base_13| Int)) (or (not (= (select |#valid| |v_ULTIMATE.start_dll_create_~new_head~0#1.base_13|) 0)) (forall ((v_arrayElimArr_3 (Array Int Int))) (or (forall ((v_arrayElimArr_4 (Array Int Int))) (let ((.cse7 (+ |ULTIMATE.start_dll_create_~head~0#1.offset| 12))) (let ((.cse2 (let ((.cse8 (store |#memory_$Pointer$.base| |v_ULTIMATE.start_dll_create_~new_head~0#1.base_13| v_arrayElimArr_4))) (store .cse8 |ULTIMATE.start_dll_create_~head~0#1.base| (store (select .cse8 |ULTIMATE.start_dll_create_~head~0#1.base|) .cse7 |v_ULTIMATE.start_dll_create_~new_head~0#1.base_13|))))) (let ((.cse4 (select (select .cse2 |ULTIMATE.start_main_~#s~0#1.base|) |ULTIMATE.start_main_~#s~0#1.offset|))) (or (forall ((v_prenex_1 Int) (v_ArrVal_418 Int)) (let ((.cse5 (let ((.cse6 (store |#memory_$Pointer$.offset| |v_ULTIMATE.start_dll_create_~new_head~0#1.base_13| v_arrayElimArr_3))) (store .cse6 |ULTIMATE.start_dll_create_~head~0#1.base| (store (select .cse6 |ULTIMATE.start_dll_create_~head~0#1.base|) .cse7 v_prenex_1))))) (or (= (let ((.cse3 (select (select .cse5 .cse4) 4))) (select (let ((.cse1 (select (select .cse2 .cse4) 4))) (select (let ((.cse0 (store .cse2 .cse1 (store (select .cse2 .cse1) (+ 12 .cse3) v_ArrVal_418)))) (store .cse0 |ULTIMATE.start_main_~#s~0#1.base| (store (select .cse0 |ULTIMATE.start_main_~#s~0#1.base|) |ULTIMATE.start_main_~#s~0#1.offset| .cse1))) .cse1)) (+ .cse3 4))) 0) (not (= (select (select .cse5 |ULTIMATE.start_main_~#s~0#1.base|) |ULTIMATE.start_main_~#s~0#1.offset|) 0))))) (not (= |v_ULTIMATE.start_dll_create_~new_head~0#1.base_13| .cse4)) (not (= |ULTIMATE.start_dll_create_~head~0#1.base| (select v_arrayElimArr_4 4)))))))) (not (= |ULTIMATE.start_dll_create_~head~0#1.offset| (select v_arrayElimArr_3 4)))))))))
(check-sat)
(exit)
